db/inputs/198165883282749597130987282227423215.smt2
(set-logic QF_FP)
(declare-const x0 (_ FloatingPoint 8 24))
(declare-const x1 (_ FloatingPoint 8 24))
(declare-const x2 (_ FloatingPoint 8 24))
(declare-const x3 (_ FloatingPoint 8 24))
(declare-const x4 (_ FloatingPoint 8 24))
(declare-const x5 (_ FloatingPoint 8 24))
(declare-const x6 (_ FloatingPoint 8 24))
(declare-const x7 (_ FloatingPoint 8 24))
(declare-const x8 (_ FloatingPoint 8 24))
(assert (fp.geq (fp.add RNE (fp.neg x1) (fp.add RNE x0 x3)) (fp.div RNE (fp.div RNE x7 x0) (fp.sub RNE x0 x2))))
(assert (fp.leq (fp.mul RNE (fp.mul RNE x3 x8) (fp.sub RNE x4 x0)) (fp.div RNE (fp.mul RNE x6 x2) (fp.div RNE x0 x6))))
(check-sat)
