db/data/198165883282749597130987282227423215.z3.out
sat
-------------------
21.304299276
